letting n =  10
letting blocks =  [[1, 1], [1, 2], [1, 8], [1, 10], [2, 1], [2, 7], [2, 9], [4, 3], [4, 5], [4, 6], [5, 2], [5, 4], [6, 3], [6, 9], [7, 10], [8, 1], [8, 2], [8, 7], [8, 8], [9, 2], [9, 6], [10, 8]]
